0 37 1 39 10 43 33 31 8 26
50 0 23 49 29 31 39 30 6 45
24 43 0 15 10 39 21 16 36 19
33 15 32 0 45 49 8 47 31 27
33 5 48 41 0 5 9 42 25 31
16 31 17 8 22 0 17 2 22 42
17 31 30 12 41 26 0 19 48 34
8 6 31 28 35 19 42 0 14 42
6 22 49 1 17 48 48 7 0 31
12 44 11 38 1 28 32 32 8 0
